networks/zoo_10_8/zoo_10_8-lower.txt
Number of groups: 4
Flow 1: {2 1 0} {1 6 0} 
Flow 2: {1 5 0} {5 10 0} 
Flow 3: {4 1 0} Flow 4: {1 2 0} {2 7 0} 
Flow 6: {5 1 0} Flow 8: {1 4 0} {4 9 0} 
Time taken running everything: 1 seconds
