networks/zoo_10_8/zoo_10_8-lower.sol
<?xml version = "1.0" encoding="UTF-8" standalone="yes"?>
<CPLEXSolution version="1.2">
 <header
   problemName="networks/zoo_10_8/zoo_10_8-lower.lp"
   solutionName="incumbent"
   solutionIndex="-1"
   objectiveValue="4"
   solutionTypeValue="3"
   solutionTypeString="primal"
   solutionStatusValue="101"
   solutionStatusString="integer optimal solution"
   solutionMethodString="mip"
   primalFeasible="1"
   dualFeasible="1"
   MIPNodes="0"
   MIPIterations="0"
   writeLevel="3"/>
 <quality
   epInt="1.0000000000000001e-05"
   epRHS="9.9999999999999995e-07"
   maxIntInfeas="0"
   maxPrimalInfeas="0"
   maxX="1"
   maxSlack="1"/>
 <variables>
  <variable name="Y(1,1)" index="0" value="1"/>
  <variable name="Y(2,5)" index="11" value="1"/>
  <variable name="Y(4,2)" index="25" value="1"/>
  <variable name="Y(8,4)" index="58" value="1"/>
  <variable name="X(1,2,4)" index="67" value="1"/>
  <variable name="X(1,4,8)" index="79" value="1"/>
  <variable name="X(1,5,2)" index="81" value="1"/>
  <variable name="X(1,6,1)" index="88" value="1"/>
  <variable name="X(2,1,1)" index="96" value="1"/>
  <variable name="X(2,7,4)" index="107" value="1"/>
  <variable name="X(4,1,3)" index="114" value="1"/>
  <variable name="X(4,9,8)" index="127" value="1"/>
  <variable name="X(5,1,6)" index="133" value="1"/>
  <variable name="X(5,10,2)" index="137" value="1"/>
 </variables>
</CPLEXSolution>
